p edge 500 171
e 17 293 1.000000
e 17 220 1.000000
e 220 293 1.000000
e 248 296 1.000000
e 8 248 1.000000
e 8 296 1.000000
e 106 237 1.000000
e 106 417 1.000000
e 237 417 1.000000
e 252 422 1.000000
e 143 252 1.000000
e 143 422 1.000000
e 335 416 1.000000
e 83 335 1.000000
e 83 416 1.000000
e 18 267 1.000000
e 18 251 1.000000
e 251 267 1.000000
e 39 168 1.000000
e 39 128 1.000000
e 128 168 1.000000
e 382 488 1.000000
e 185 488 1.000000
e 185 382 1.000000
e 23 216 1.000000
e 23 441 1.000000
e 216 441 1.000000
e 72 309 1.000000
e 72 182 1.000000
e 182 309 1.000000
e 196 216 1.000000
e 146 196 1.000000
e 146 216 1.000000
e 346 424 1.000000
e 135 424 1.000000
e 135 346 1.000000
e 234 352 1.000000
e 90 234 1.000000
e 90 352 1.000000
e 156 339 1.000000
e 156 186 1.000000
e 186 339 1.000000
e 69 234 1.000000
e 69 394 1.000000
e 234 394 1.000000
e 441 497 1.000000
e 123 441 1.000000
e 123 497 1.000000
e 226 315 1.000000
e 193 226 1.000000
e 193 315 1.000000
e 23 299 1.000000
e 3 23 1.000000
e 3 299 1.000000
e 69 121 1.000000
e 69 100 1.000000
e 100 121 1.000000
e 466 482 1.000000
e 156 482 1.000000
e 156 466 1.000000
e 275 396 1.000000
e 188 275 1.000000
e 188 396 1.000000
e 123 460 1.000000
e 123 161 1.000000
e 161 460 1.000000
e 282 342 1.000000
e 231 342 1.000000
e 231 282 1.000000
e 224 241 1.000000
e 34 224 1.000000
e 34 241 1.000000
e 300 335 1.000000
e 167 335 1.000000
e 167 300 1.000000
e 257 433 1.000000
e 81 433 1.000000
e 81 257 1.000000
e 432 497 1.000000
e 115 432 1.000000
e 115 497 1.000000
e 123 212 1.000000
e 19 212 1.000000
e 19 123 1.000000
e 17 255 1.000000
e 17 155 1.000000
e 155 255 1.000000
e 311 419 1.000000
e 311 337 1.000000
e 337 419 1.000000
e 37 274 1.000000
e 37 474 1.000000
e 274 474 1.000000
e 42 438 1.000000
e 42 77 1.000000
e 77 438 1.000000
e 197 291 1.000000
e 197 485 1.000000
e 291 485 1.000000
e 192 468 1.000000
e 192 308 1.000000
e 308 468 1.000000
e 77 494 1.000000
e 58 77 1.000000
e 58 494 1.000000
e 396 398 1.000000
e 50 398 1.000000
e 50 396 1.000000
e 227 414 1.000000
e 86 227 1.000000
e 86 414 1.000000
e 98 486 1.000000
e 98 179 1.000000
e 179 486 1.000000
e 222 497 1.000000
e 213 222 1.000000
e 213 497 1.000000
e 229 349 1.000000
e 126 229 1.000000
e 126 349 1.000000
e 141 317 1.000000
e 74 141 1.000000
e 74 317 1.000000
e 268 443 1.000000
e 92 268 1.000000
e 92 443 1.000000
e 62 137 1.000000
e 62 234 1.000000
e 137 234 1.000000
e 155 339 1.000000
e 85 155 1.000000
e 85 339 1.000000
e 333 483 1.000000
e 333 421 1.000000
e 421 483 1.000000
e 90 399 1.000000
e 90 91 1.000000
e 91 399 1.000000
e 246 396 1.000000
e 178 246 1.000000
e 178 396 1.000000
e 168 223 1.000000
e 115 168 1.000000
e 115 223 1.000000
e 3 279 1.000000
e 3 365 1.000000
e 279 365 1.000000
e 23 170 1.000000
e 23 460 1.000000
e 170 460 1.000000
e 125 164 1.000000
e 41 164 1.000000
e 41 125 1.000000
e 135 230 1.000000
e 135 208 1.000000
e 208 230 1.000000
e 82 299 1.000000
e 82 200 1.000000
e 200 299 1.000000
e 446 472 1.000000
e 254 472 1.000000
e 254 446 1.000000
e 345 458 1.000000
e 124 345 1.000000
e 124 458 1.000000
e 377 467 1.000000
e 269 377 1.000000
e 269 467 1.000000
e 140 267 1.000000
e 140 248 1.000000
e 248 267 1.000000
